unknown
(model
; cardinality of BoundSet is 4
(declare-sort BoundSet 0)
; rep: @uc_BoundSet_0
; rep: @uc_BoundSet_1
; rep: @uc_BoundSet_2
; rep: @uc_BoundSet_3
; cardinality of UnboundSet is 1
(declare-sort UnboundSet 0)
(declare-fun groundTerm_5 () UnboundSet)
(define-fun Devoured ((BOUND_VARIABLE_408 BoundSet) (BOUND_VARIABLE_409 BoundSet)) Bool true)
(define-fun HasSuperSizedFries ((BOUND_VARIABLE_408 BoundSet) (BOUND_VARIABLE_409 BoundSet)) Bool true)
(define-fun Has64ozSoda ((BOUND_VARIABLE_408 BoundSet) (BOUND_VARIABLE_409 BoundSet)) Bool true)
(define-fun IsHypocrite ((BOUND_VARIABLE_420 BoundSet)) Bool false)
)
sat
(model
; cardinality of BoundSet is 1
(declare-sort BoundSet 0)
; rep: @uc_BoundSet_0
; cardinality of UnboundSet is 1
(declare-sort UnboundSet 0)
(declare-fun groundTerm_7 () UnboundSet)
(define-fun Devoured ((BOUND_VARIABLE_450 BoundSet) (BOUND_VARIABLE_451 BoundSet)) Bool true)
(define-fun HasSuperSizedFries ((BOUND_VARIABLE_450 BoundSet) (BOUND_VARIABLE_451 BoundSet)) Bool true)
(define-fun Has64ozSoda ((BOUND_VARIABLE_450 BoundSet) (BOUND_VARIABLE_451 BoundSet)) Bool true)
(define-fun IsHypocrite ((BOUND_VARIABLE_459 BoundSet)) Bool false)
)
